76
125
87	13
86	14
85	12
84	11
83	9
82	14
81	13
80	18
79	13
78	13
77	17
76	7
75	9
74	19
73	12
72	13
71	13
70	13
69	11
68	12
67	12
66	15
65	11
64	9
63	15
62	14
61	19
60	15
59	20
58	10
57	15
56	18
55	16
54	9
53	10
52	15
51	9
50	17
49	12
48	17
47	14
46	16
45	17
44	14
43	12
42	14
41	8
40	14
39	14
38	19
37	13
36	15
35	13
34	11
33	8
32	6
31	6
30	18
29	6
28	8
27	17
26	18
25	18
24	9
23	11
22	14
21	15
20	16
19	11
18	11
17	14
16	17
15	14
14	11
13	13
12	11
